HUN,8,6,277
5,75,3,69,4,77,2,38,0,67,1,49
4,17,1,25,3,12,5,87,0,71,2,10
3,74,5,17,1,33,4,82,2,23,0,72
5,70,4,68,1,19,2,98,3,92,0,82
0,63,5,83,3,95,1,6,2,99,4,54
3,34,1,74,4,2,2,83,0,18,5,42
5,13,3,15,2,87,1,54,0,93,4,3
0,11,2,34,5,81,1,35,3,64,4,76
